100
32
15
5
15
7
12
7
20
12
1
6
9
17
12
10
22
15
10
9
6
1
12
17
1
16
3
3
2
3
5
3
18
1
1
1
4
1
19
2
1
2
1
1
8
1
1
22
1
17
2
5
2
7
1
1
18
4
1
2
2
2
1
3
3
2
1
4
21
3
1
19
17
1
5
26
1
1
2
1
2
2
2
2
4
1
4
2
2
3
18
3
2
3
4
1
2
2
1
2
2
1